SCIP Status        : solving was interrupted [time limit reached]
Total Time         :    3600.00
  solving          :    3600.00
  presolving       :       0.47 (included in solving)
  reading          :       0.00
  copying          :       0.83 (31 #copies) (minimal 0.00, maximal 0.07, average 0.03)
Original Problem   :
  Problem name     : bbbenchmark/pw05_100.6.cut
  Variables        : 101 (100 binary, 0 integer, 0 implicit integer, 1 continuous)
  Constraints      : 1 initial, 1 maximal
  Objective        : minimize, 1 non-zeros (abs.min = 1, abs.max = 1)
Presolved Problem  :
  Problem name     : t_bbbenchmark/pw05_100.6.cut
  Variables        : 1956 (100 binary, 0 integer, 1843 implicit integer, 13 continuous)
  Constraints      : 1880 initial, 6889 maximal
  Objective        : minimize, 1 non-zeros (abs.min = 1, abs.max = 1)
  Nonzeros         : 8809 constraint, 202 clique table
Presolvers         :   ExecTime  SetupTime  Calls  FixedVars   AggrVars   ChgTypes  ChgBounds   AddHoles    DelCons    AddCons   ChgSides   ChgCoefs
  boundshift       :       0.00       0.00      0          0          0          0          0          0          0          0          0          0
  convertinttobin  :       0.00       0.00      0          0          0          0          0          0          0          0          0          0
  domcol           :       0.00       0.00      1          0          0          0          0          0          0          0          0          0
  dualagg          :       0.00       0.00      0          0          0          0          0          0          0          0          0          0
  dualcomp         :       0.00       0.00      1          0          0          0          0          0          0          0          0          0
  dualinfer        :       0.00       0.00      0          0          0          0          0          0          0          0          0          0
  dualsparsify     :       0.00       0.00      1          0          0          0          0          0          0          0          0          0
  gateextraction   :       0.00       0.00      0          0          0          0          0          0          0          0          0          0
  implics          :       0.00       0.00      2          0          0          0          0          0          0          0          0          0
  inttobinary      :       0.00       0.00      0          0          0          0          0          0          0          0          0          0
  qpkktref         :       0.00       0.00      0          0          0          0          0          0          0          0          0          0
  redvub           :       0.00       0.00      0          0          0          0          0          0          0          0          0          0
  sparsify         :       0.00       0.00      1          0          0          0          0          0          0          0          0          0
  stuffing         :       0.00       0.00      0          0          0          0          0          0          0          0          0          0
  trivial          :       0.00       0.00      4          0          0          0          0          0          0          0          0          0
  tworowbnd        :       0.00       0.00      0          0          0          0          0          0          0          0          0          0
  dualfix          :       0.00       0.00      4          0          0          0          0          0          0          0          0          0
  genvbounds       :       0.00       0.00      0          0          0          0          0          0          0          0          0          0
  probing          :       0.30       0.00      1          0          0          0          0          0          0          0          0          0
  pseudoobj        :       0.00       0.00      1          0          0          0          1          0          0          0          0          0
  symmetry         :       0.00       0.00      0          0          0          0          0          0          0          0          0          0
  vbounds          :       0.00       0.00      1          0          0          0          0          0          0          0          0          0
  varbound         :       0.00       0.00      2          0          0          0          0          0          0          0          0          0
  and              :       0.01       0.01      2          0          0          0          0          0          0          0          0          0
  linear           :       0.00       0.00      2          0          0          0          0          0          0          0          0          0
  logicor          :       0.00       0.00      0          0          0          0          0          0          0          0          0          0
  bounddisjunction :       0.00       0.00      0          0          0          0          0          0          0          0          0          0
  nonlinear        :       0.15       0.01      5          0          0          0          1          0          0       1879          0          0
  benders          :       0.00       0.00      0          0          0          0          0          0          0          0          0          0
  components       :       0.00       0.00      1          0          0          0          0          0          0          0          0          0
  root node        :          -          -      -          0          -          -         13          -          -          -          -          -
Constraints        :     Number  MaxNumber  #Separate #Propagate    #EnfoLP    #EnfoRelax  #EnfoPS    #Check   #ResProp    Cutoffs    DomReds       Cuts    Applied      Conss   Children
  benderslp        :          0          0          0          0      39202          0          0       3010          0          0          0          0          0          0          0
  integral         :          0          0          0          0      39202          0          0       3010          0          0       1610          0          0       1123      76862
  varbound         :         12         12         47     263745          0          0          0         69          0          0      16108          0          0          0          0
  and              :       1843       1843      52234     356389          1          0          0         69     313934          8     686935       9566       9138          0          0
  linear           :         25+        30         47     356411          1          0          0         67        371          7     117663          0          0          0          0
  logicor          :          0+      4820          0      67666          0          0          0          0        267        223         38          0          0          0          0
  bounddisjunction :          0+       377          0      23592          0          0          0          0          1          7          2          0          0          0          0
  benders          :          0          0          0          0          1          0          0         37          0          0          0          0          0          0          0
  countsols        :          0          0          0          0          1          0          0         37          0          0          0          0          0          0          0
  components       :          0          0          0          0          0          0          0          0          0          0          0          0          0          0          0
Constraint Timings :  TotalTime  SetupTime   Separate  Propagate     EnfoLP     EnfoPS     EnfoRelax   Check    ResProp    SB-Prop
  benderslp        :       0.06       0.00       0.00       0.00       0.06       0.00       0.00       0.00       0.00       0.00
  integral         :      53.54       0.00       0.00       0.00      53.54       0.00       0.00       0.00       0.00       0.00
  varbound         :       0.37       0.00       0.00       0.35       0.00       0.00       0.00       0.00       0.00       0.02
  and              :      57.78       0.01      37.87      19.15       0.00       0.00       0.00       0.04       0.28       0.43
  linear           :       1.67       0.00       0.02       1.64       0.00       0.00       0.00       0.00       0.00       0.01
  logicor          :       4.57       0.00       0.00       4.54       0.00       0.00       0.00       0.00       0.00       0.03
  bounddisjunction :       0.40       0.00       0.00       0.40       0.00       0.00       0.00       0.00       0.00       0.00
  benders          :       0.00       0.00       0.00       0.00       0.00       0.00       0.00       0.00       0.00       0.00
  countsols        :       0.00       0.00       0.00       0.00       0.00       0.00       0.00       0.00       0.00       0.00
  components       :       0.05       0.00       0.00       0.05       0.00       0.00       0.00       0.00       0.00       0.00
Propagators        : #Propagate   #ResProp    Cutoffs    DomReds
  dualfix          :          4          0          0          0
  genvbounds       :          0          0          0          0
  nlobbt           :          0          0          0          0
  obbt             :          0          0          0          0
  probing          :          0          0          0          0
  pseudoobj        :     176514          0          0         39
  redcost          :      99624          0          0      35837
  rootredcost      :          7          0          0          0
  symmetry         :          0          0          0          0
  vbounds          :      39667          0          0          0
Propagator Timings :  TotalTime  SetupTime   Presolve  Propagate    ResProp    SB-Prop
  dualfix          :       0.00       0.00       0.00       0.00       0.00       0.00
  genvbounds       :       0.21       0.00       0.00       0.20       0.00       0.01
  nlobbt           :       0.00       0.00       0.00       0.00       0.00       0.00
  obbt             :       0.00       0.00       0.00       0.00       0.00       0.00
  probing          :       0.30       0.00       0.30       0.00       0.00       0.00
  pseudoobj        :       0.22       0.00       0.00       0.21       0.00       0.01
  redcost          :       7.95       0.00       0.00       7.95       0.00       0.00
  rootredcost      :       0.33       0.00       0.00       0.32       0.00       0.01
  symmetry         :       0.18       0.00       0.00       0.18       0.00       0.00
  vbounds          :       0.34       0.00       0.00       0.33       0.00       0.01
Conflict Analysis  :       Time      Calls    Success    DomReds  Conflicts   Literals    Reconvs ReconvLits   Dualrays   Nonzeros   LP Iters   (pool size: [10000,10000])
  propagation      :       0.02        238        174          -        217       55.0          0        0.0          -          -          -
  infeasible LP    :       0.03         11         11          -        505      154.7          0        0.0         25      162.1          0
  bound exceed. LP :      17.72       4151       3617          -      89453      102.5          0        0.0          0        0.0      40220
  strong branching :       0.00          0          0          -          0        0.0          0        0.0          -          -          0
  pseudo solution  :       0.00          0          0          -          0        0.0          0        0.0          -          -          -
  applied globally :       0.37          -          -          0      16709      120.3          -          -         25          -          -
  applied locally  :          -          -          -          0          0        0.0          -          -          0          -          -
Separators         :   ExecTime  SetupTime      Calls  RootCalls    Cutoffs    DomReds  FoundCuts ViaPoolAdd  DirectAdd    Applied ViaPoolApp  DirectApp      Conss
  cut pool         :       9.19          -      19180         69          -          -      43970    2498725          -          -          -          -          -    (maximal pool size:       3711)
  aggregation      :     420.91       0.00       7123         47          0          0        176        651          0        130        130          0          0
  > cmir           :          -          -          -          -          -          -          -        651          0        130        130          0          -
  > flowcover      :          -          -          -          -          -          -          -          0          0          0          0          0          -
  > knapsackcover  :          -          -          -          -          -          -          -          0          0          0          0          0          -
  cgmip            :       0.00       0.00          0          0          0          0          0          0          0          0          0          0          0
  clique           :       0.00       0.00         47         47          0          0          0          0          0          0          0          0          0
  closecuts        :       0.00       0.00          0          0          0          0          0          0          0          0          0          0          0
  convexproj       :       0.00       0.00          0          0          0          0          0          0          0          0          0          0          0
  disjunctive      :       0.00       0.00          0          0          0          0          0          0          0          0          0          0          0
  eccuts           :       0.00       0.00          0          0          0          0          0          0          0          0          0          0          0
  gauge            :       0.00       0.00          0          0          0          0          0          0          0          0          0          0          0
  gomory           :       0.00       0.00          0          0          0          0          0          0          0          0          0          0          0
  > gomorymi       :          -          -          -          -          -          -          -          0          0          0          0          0          -
  > strongcg       :          -          -          -          -          -          -          -          0          0          0          0          0          -
  impliedbounds    :       0.55       0.00       7123         47          0          0         56          4          0          2          2          0          0
  interlattice     :       0.00       0.00          0          0          0          0          0          0          0          0          0          0          0
  interminor       :       0.00       0.00          0          0          0          0          0          0          0          0          0          0          0
  intersub         :       0.50       0.00         22         22          0          0         20          0         20         20          0         20          0
  intobj           :       0.00       0.00          0          0          0          0          0          0          0          0          0          0          0
  mcf              :       0.00       0.00          1          1          0          0          0          0          0          0          0          0          0
  minor            :       0.02       0.00          0          0          0          0          0          0          0          0          0          0          0
  mixing           :       0.02       0.00       7123         47          0          0          0          0          0          0          0          0          0
  oddcycle         :       0.00       0.00          0          0          0          0          0          0          0          0          0          0          0
  rapidlearning    :       0.00       0.00          0          0          0          0          0          0          0          0          0          0          0
  rlt              :       0.00       0.00         10         10          0          0          0          0          0          0          0          0          0
  zerohalf         :      74.05       0.00       6100         20          0          0      43738    2498070          0     158566     158566          0          0
Cutselectors       :   ExecTime  SetupTime      Calls  RootCalls   Selected     Forced   Filtered  RootSelec   RootForc   RootFilt 
  hybrid           :       2.64       0.00      15175         45     167856          0    2340455        210          0         60
Pricers            :   ExecTime  SetupTime      Calls       Vars
  problem variables:       0.00          -          0          0
Branching Rules    :   ExecTime  SetupTime   BranchLP  BranchExt   BranchPS    Cutoffs    DomReds       Cuts      Conss   Children
  allfullstrong    :       0.00       0.00          0          0          0          0          0          0          0          0
  cloud            :       0.00       0.00          0          0          0          0          0          0          0          0
  distribution     :       0.00       0.00          0          0          0          0          0          0          0          0
  fullstrong       :       0.00       0.00          0          0          0          0          0          0          0          0
  inference        :       0.00       0.00          0          0          0          0          0          0          0          0
  leastinf         :       0.00       0.00          0          0          0          0          0          0          0          0
  lookahead        :       0.00       0.00          0          0          0          0          0          0          0          0
  mostinf          :       0.00       0.00          0          0          0          0          0          0          0          0
  multaggr         :       0.00       0.00          0          0          0          0          0          0          0          0
  nodereopt        :       0.00       0.00          0          0          0          0          0          0          0          0
  pscost           :       0.00       0.00          0          0          0          0          0          0          0          0
  random           :       0.00       0.00          0          0          0          0          0          0          0          0
  relpscost        :      53.39       0.00      39201          0          0          0       1610          0       1124      76862
  vanillafullstrong:       0.00       0.00          0          0          0          0          0          0          0          0
Primal Heuristics  :   ExecTime  SetupTime      Calls      Found       Best
  LP solutions     :       0.00          -          -          1          1
  relax solutions  :       0.00          -          -          0          0
  pseudo solutions :       0.00          -          -          0          0
  strong branching :       0.03          -          -          0          0
  actconsdiving    :       0.00       0.00          0          0          0
  adaptivediving   :       4.98       0.00         24          0          0
  alns             :       1.14       0.00         12          3          1
  bound            :       0.00       0.00          0          0          0
  clique           :       0.01       0.00          1          0          0
  coefdiving       :       0.00       0.00          0          0          0
  completesol      :       0.00       0.00          0          0          0
  conflictdiving   :      43.67       0.00        261          0          0
  crossover        :       4.21       0.00          2          2          2
  dins             :       0.00       0.00          0          0          0
  distributiondivin:      65.02       0.00        250          0          0
  dps              :       0.00       0.00          0          0          0
  dualval          :       0.00       0.00          0          0          0
  farkasdiving     :       0.00       0.00          0          0          0
  feaspump         :       0.20       0.00          1          1          1
  fixandinfer      :       0.00       0.00          0          0          0
  fracdiving       :      46.90       0.00        250          0          0
  gins             :       0.09       0.00          0          0          0
  guideddiving     :      42.75       0.00        249          0          0
  indicator        :       0.09       0.00          0          0          0
  indicatordiving  :       0.00       0.00          0          0          0
  intdiving        :       0.00       0.00          0          0          0
  intshifting      :       0.57       0.00         50          0          0
  linesearchdiving :      40.47       0.00        249          0          0
  localbranching   :       0.00       0.00          0          0          0
  locks            :       0.01       0.00          1          0          0
  lpface           :       0.06       0.00          0          0          0
  mpec             :     132.80       0.00         11          0          0
  multistart       :       0.00       0.00          0          0          0
  mutation         :       0.00       0.00          0          0          0
  nlpdiving        :      20.96       0.00          2          0          0
  objpscostdiving  :      56.64       0.00         36         13          0
  octane           :       0.00       0.00          0          0          0
  ofins            :       0.03       0.00          0          0          0
  oneopt           :       0.06       0.00         14          0          0
  padm             :       0.00       0.00          0          0          0
  proximity        :       0.00       0.00          0          0          0
  pscostdiving     :      49.15       0.00        249          1          1
  randrounding     :       0.51       0.00       2969          0          0
  rens             :       0.00       0.00          0          0          0
  reoptsols        :       0.00       0.00          0          0          0
  repair           :       0.00       0.00          0          0          0
  rins             :       1.68       0.00         16          1          1
  rootsoldiving    :      42.53       0.00         24          4          0
  rounding         :       1.07       0.00       3144          0          0
  shiftandpropagate:       0.00       0.00          0          0          0
  shifting         :      48.49       0.00       8325          6          5
  simplerounding   :       0.07       0.00          0          0          0
  subnlp           :      88.01       0.00          0          0          0
  trivial          :       0.01       0.00          2          2          2
  trivialnegation  :       0.00       0.00          0          0          0
  trustregion      :       0.00       0.00          0          0          0
  trysol           :       0.08       0.00          0          0          0
  twoopt           :       0.00       0.00          0          0          0
  undercover       :       0.48       0.00          1          1          1
  vbounds          :       0.00       0.00          0          0          0
  veclendiving     :      36.62       0.00        250          0          0
  zeroobj          :       0.00       0.00          0          0          0
  zirounding       :       0.61       0.00       1000          0          0
  other solutions  :          -          -          -          0          -
Diving (single)    :      Calls      Nodes   LP Iters Backtracks  Conflicts   MinDepth   MaxDepth   AvgDepth  RoundSols  NLeafSols  MinSolDpt  MaxSolDpt  AvgSolDpt
  actconsdiving    :          0          -          -          -          -          -          -          -          -          -          -          -          -
  coefdiving       :          0          -          -          -          -          -          -          -          -          -          -          -          -
  conflictdiving   :        261      11231     310628        288      18280         48         82       60.3          0          -          -          -          -
  distributiondivin:        250       8578     370214        306       9129         45         68       53.3          0          -          -          -          -
  farkasdiving     :          0          -          -          -          -          -          -          -          -          -          -          -          -
  fracdiving       :        250      41401     298726         62       1498         56        554      185.5          0          -          -          -          -
  guideddiving     :        249      36000     285510         46       1577         56        456      164.4          0          -          -          -          -
  indicatordiving  :          0          -          -          -          -          -          -          -          -          -          -          -          -
  linesearchdiving :        249      10607     293332        263      15519         48         90       61.2          0          -          -          -          -
  pscostdiving     :        249      10359     356064        253      11824         46         79       60.5          0          1         79         79       79.0
  veclendiving     :        250      10393     263595        242      17824         54         85       60.0          0          -          -          -          -
Diving (adaptive)  :      Calls      Nodes   LP Iters Backtracks  Conflicts   MinDepth   MaxDepth   AvgDepth  RoundSols  NLeafSols  MinSolDpt  MaxSolDpt  AvgSolDpt
  actconsdiving    :          4        165       5828          6        126         56         57       56.5          0          -          -          -          -
  coefdiving       :          7        296       6914          6        427         53         74       60.4          0          -          -          -          -
  conflictdiving   :          0          -          -          -          -          -          -          -          -          -          -          -          -
  distributiondivin:          0          -          -          -          -          -          -          -          -          -          -          -          -
  farkasdiving     :          0          -          -          -          -          -          -          -          -          -          -          -          -
  fracdiving       :          3       1005       5893          2         23        279        448      349.7          0          -          -          -          -
  guideddiving     :          2        289       2505          0          0        147        170      158.5          0          -          -          -          -
  indicatordiving  :          0          -          -          -          -          -          -          -          -          -          -          -          -
  linesearchdiving :          4        195       5429          5        314         59         71       64.5          0          -          -          -          -
  pscostdiving     :          2         87       3027          2         75         59         60       59.5          0          -          -          -          -
  veclendiving     :          2         85       3087          3        177         57         65       61.0          0          -          -          -          -
Neighborhoods      :      Calls  SetupTime  SolveTime SolveNodes       Sols       Best       Exp3  EpsGreedy        UCB TgtFixRate  Opt  Inf Node Stal  Sol  Usr Othr Actv
  rens             :          1       0.03       0.01          1          0          0    0.00000   -1.00000    0.56306      0.700    0    1    0    0    0    0    0    1
  rins             :          1       0.05       0.01          5          0          0    0.00000   -1.00000    0.55906      0.700    0    1    0    0    0    0    0    1
  mutation         :          1       0.02       0.01          3          0          0    0.00000   -1.00000    0.56136      0.700    0    1    0    0    0    0    0    1
  localbranching   :          1       0.04       0.02         31          0          0    0.00000   -1.00000    0.53306      0.700    0    1    0    0    0    0    0    1
  crossover        :          1       0.03       0.02          1          0          0    0.00000   -1.00000    0.56306      0.700    0    1    0    0    0    0    0    1
  proximity        :          5       0.39       0.31        211          3          1    0.00000   -1.00000    0.53449      0.879    0    1    0    3    1    0    0    1
  zeroobjective    :          1       0.03       0.01         16          0          0    0.00000   -1.00000    0.54806      0.700    0    1    0    0    0    0    0    1
  dins             :          1       0.03       0.02         21          0          0    0.00000   -1.00000    0.54306      0.700    0    1    0    0    0    0    0    1
  trustregion      :          0       0.00       0.00          0          0          0    0.00000   -1.00000    1.00000      0.900    0    0    0    0    0    0    0    0
Expressions        :   #IntEval  IntEvalTi   #RevProp  RevPropTi    DomReds    Cutoffs  #Estimate  EstimTime  Branching  #Simplify SimplifyTi Simplified
  pow              :          0       0.00          0       0.00          0          0          0       0.00          0          0       0.00          0
  prod             :       9900       0.01          0       0.00          0          0          0       0.00          0       6793       0.01          0
  sum              :          8       0.01          2       0.00          0          0          0       0.00          0          3       0.03          2
  var              :       6677       0.00          0       0.00          0          0          0       0.00          0      15744       0.00          0
  varidx           :          0       0.00          0       0.00          0          0          0       0.00          0          0       0.00          0
LP                 :       Time      Calls Iterations  Iter/call   Iter/sec  Time-0-It Calls-0-It    ItLimit
  primal LP        :     114.03       7193          0       0.00       0.00     113.99       7193
  dual LP          :    2031.56      85160    7742360      97.89    3811.04       3.70       6066
  lex dual LP      :       0.00          0          0       0.00          -
  barrier LP       :       0.00          0          0       0.00          -       0.00          0
  resolve instable :       0.00          0          0       0.00          -
  diving/probing LP:     369.01       8950    2611331     291.77    7076.59
  strong branching :      31.80       2186     208389      95.33    6553.11          -          -        197
    (at root node) :          -         19       4346     228.74          -
  conflict analysis:       8.37       4059      40220       9.91    4805.26
NLP relaxation     :
  solve time       :      20.17 (13 calls)
  convexity        :  nonconvex (37 linear rows, 0 convex ineq., 0 nonconvex ineq., 1843 nonlinear eq. or two-sided ineq.)
NLP Solvers        :  #Problems  ProblemTi    #Solves  SolveTime      #Iter  Time/Iter      #Okay #TimeLimit #IterLimit #LObjLimit #Interrupt  #NumError #EvalError  #OutOfMem #LicenseEr #OtherTerm   #GlobOpt    #LocOpt  #Feasible #LocInfeas #GlobInfea #Unbounded   #Unknown
  ipopt            :         12       3.88         33     157.16       1742       0.09         33          0          0          0          0          0          0          0          0          0          0         14          0         18          0          0          1
B&B Tree           :
  number of runs   :          1
  nodes            :      63195 (38431 internal, 24764 leaves)
  feasible leaves  :          1
  infeas. leaves   :         22
  objective leaves :      24740
  nodes (total)    :      63195 (38431 internal, 24764 leaves)
  nodes left       :      13529
  max depth        :         55
  max depth (total):         55
  backtracks       :      14216 (22.5%)
  early backtracks :          0 (0.0%)
  nodes exc. ref.  :          0 (0.0%)
  delayed cutoffs  :          3
  repropagations   :         49 (430 domain reductions, 0 cutoffs)
  avg switch length:       5.63
  switching time   :     129.39
Estim. Tree Size   :     126668
Estimation Tree    : 76863 nodes (63334 visited, 38431 internal, 24903 leaves, 13529 open), weight: 0.0000 completed 0.0975
Estimations        :      estim      value      trend resolution     smooth
  wbe              : 1061724314681          -          -          -          -
  tree-profile     :         -1          -          -          -          -
  gap              :    1179712    0.68571    0.00002         32    1188070
  tree-weight      :     126668    0.00000    0.00000         32     126542
  leaf-frequency   :     126668    0.39319   -0.00002         32     126556
  ssg              :    2235655    0.84607   -0.00002         32    2207903
  open-nodes       :     126668 13529.00000   14.90579         32     126542
Root Node          :
  First LP value   : -5.58505050505052e+00
  First LP Iters   :       1626 (9033.33 Iter/sec)
  First LP Time    :       0.18
  Final Dual Bound : -5.35703825926070e+00
  Final Root Iters :       2904
  Root LP Estimate : -2.30046308295166e+00
Solution           :
  Solutions found  :         35 (15 improvements)
  First Solution   : +1.00000000000000e+05   (in run 1, after 0 nodes, 0.05 seconds, depth 0, found by <trivial>)
  Gap First Sol.   :   infinite
  Gap Last Sol.    :      49.87 %
  Primal Bound     : -3.21898989898990e+00   (in run 1, after 34583 nodes, 1559.80 seconds, depth 30, found by <crossover>)
  Dual Bound       : -4.69437037608695e+00
  Gap              :      45.83 %
Integrals          :      Total       Avg%
  primal-dual      :  122889.81      34.14
  primal-ref       :          -          - (not evaluated)
  dual-ref         :          -          - (not evaluated)
